NAME : P = NP
TYPE : TSP
DIMENSION : 36
EDGE_WEIGHT_TYPE : EUC_2D
NODE_COORD_SECTION
0 733 695
1 454 290
2 33 16
3 408 136
4 212 22
5 84 98
6 308 420
7 257 80
8 230 134
9 542 151
10 50 425
11 241 29
12 26 2
13 175 129
14 260 273
15 54 331
16 344 708
17 8 43
18 21 8
19 556 629
20 446 19
21 392 360
22 55 18
23 829 807
24 684 299
25 29 50
26 318 46
27 26 236
28 5 33
29 298 432
30 243 62
31 99 384
32 98 154
33 202 365
34 7 405
35 5 348